32	0

0	2	2	3
2	1	4
8	1	5
2	1	5
1	2	6	8
7	2	7	11
3	1	9
9	2	9	11
1	1	10
6	3	12	13	15
8	3	12	13	15
2	2	14	16
1	2	14	16
9	2	17	18
8	1	16
3	2	17	18
5	1	19
4	2	19	20
2	2	21	22
10	1	21
2	2	23	24
10	1	24
4	1	25
5	1	25
5	1	26
4	1	27
7	2	28	29
6	1	30
8	1	31
7	1	31
9	1	32
0	0
